p cnf 954 2447
51 -689 -1 0
-51 689 0
-51 1 0
52 -51 -690 0
-52 51 0
-52 690 0
53 -691 -4 0
-53 691 0
-53 4 0
54 -53 -6 0
-54 53 0
-54 6 0
55 -692 -693 0
-55 692 0
-55 693 0
56 -694 -691 0
-56 694 0
-56 691 0
57 -56 -695 0
-57 56 0
-57 695 0
58 -696 -55 0
-58 696 0
-58 55 0
59 -697 -5 0
-59 697 0
-59 5 0
60 -59 -10 0
-60 59 0
-60 10 0
61 -698 -58 0
-61 698 0
-61 58 0
62 -699 -700 0
-62 699 0
-62 700 0
63 -62 -13 0
-63 62 0
-63 13 0
64 -701 -61 0
-64 701 0
-64 61 0
65 -15 -14 0
-65 15 0
-65 14 0
66 -65 -695 0
-66 65 0
-66 695 0
67 -702 -64 0
-67 702 0
-67 64 0
68 -16 -14 0
-68 16 0
-68 14 0
69 -68 -703 0
-69 68 0
-69 703 0
70 -704 -67 0
-70 704 0
-70 67 0
71 -17 -12 0
-71 17 0
-71 12 0
72 -71 -690 0
-72 71 0
-72 690 0
73 -705 -70 0
-73 705 0
-73 70 0
74 -18 -706 0
-74 18 0
-74 706 0
75 -74 -13 0
-75 74 0
-75 13 0
76 -707 -73 0
-76 707 0
-76 73 0
77 -20 -708 0
-77 20 0
-77 708 0
78 -77 -691 0
-78 77 0
-78 691 0
79 -709 -76 0
-79 709 0
-79 76 0
80 -22 -710 0
-80 22 0
-80 710 0
81 -80 -23 0
-81 80 0
-81 23 0
82 -711 -79 0
-82 711 0
-82 79 0
83 -24 -712 0
-83 24 0
-83 712 0
84 -83 -691 0
-84 83 0
-84 691 0
85 -713 -82 0
-85 713 0
-85 82 0
86 -26 -714 0
-86 26 0
-86 714 0
87 -86 -689 0
-87 86 0
-87 689 0
88 -715 -85 0
-88 715 0
-88 85 0
89 -28 -27 0
-89 28 0
-89 27 0
90 -89 -716 0
-90 89 0
-90 716 0
91 -717 -88 0
-91 717 0
-91 88 0
92 -718 -29 0
-92 718 0
-92 29 0
93 -92 -719 0
-93 92 0
-93 719 0
94 -720 -91 0
-94 720 0
-94 91 0
95 -721 -26 0
-95 721 0
-95 26 0
96 -95 -23 0
-96 95 0
-96 23 0
97 -722 -94 0
-97 722 0
-97 94 0
98 -33 -20 0
-98 33 0
-98 20 0
99 -98 -5 0
-99 98 0
-99 5 0
100 -723 -97 0
-100 723 0
-100 97 0
101 -724 -725 0
-101 724 0
-101 725 0
102 -101 -703 0
-102 101 0
-102 703 0
103 -726 -100 0
-103 726 0
-103 100 0
104 -34 -7 0
-104 34 0
-104 7 0
105 -104 -36 0
-105 104 0
-105 36 0
106 -727 -103 0
-106 727 0
-106 103 0
107 -19 -706 0
-107 19 0
-107 706 0
108 -107 -728 0
-108 107 0
-108 728 0
109 -729 -106 0
-109 729 0
-109 106 0
110 -37 -730 0
-110 37 0
-110 730 0
111 -110 -16 0
-111 110 0
-111 16 0
112 -731 -109 0
-112 731 0
-112 109 0
113 -28 -24 0
-113 28 0
-113 24 0
114 -113 -690 0
-114 113 0
-114 690 0
115 -732 -112 0
-115 732 0
-115 112 0
116 -708 -18 0
-116 708 0
-116 18 0
117 -116 -32 0
-117 116 0
-117 32 0
118 -733 -115 0
-118 733 0
-118 115 0
119 -38 -734 0
-119 38 0
-119 734 0
120 -119 -730 0
-120 119 0
-120 730 0
121 -735 -118 0
-121 735 0
-121 118 0
122 -30 -17 0
-122 30 0
-122 17 0
123 -122 -5 0
-123 122 0
-123 5 0
124 -736 -121 0
-124 736 0
-124 121 0
125 -38 -694 0
-125 38 0
-125 694 0
126 -125 -28 0
-126 125 0
-126 28 0
127 -737 -124 0
-127 737 0
-127 124 0
128 -6 -689 0
-128 6 0
-128 689 0
129 -128 -10 0
-129 128 0
-129 10 0
130 -738 -127 0
-130 738 0
-130 127 0
131 -39 -739 0
-131 39 0
-131 739 0
132 -131 -40 0
-132 131 0
-132 40 0
133 -740 -130 0
-133 740 0
-133 130 0
134 -741 -721 0
-134 741 0
-134 721 0
135 -134 -41 0
-135 134 0
-135 41 0
136 -742 -133 0
-136 742 0
-136 133 0
137 -14 -5 0
-137 14 0
-137 5 0
138 -137 -42 0
-138 137 0
-138 42 0
139 -743 -136 0
-139 743 0
-139 136 0
140 -744 -5 0
-140 744 0
-140 5 0
141 -140 -36 0
-141 140 0
-141 36 0
142 -745 -139 0
-142 745 0
-142 139 0
143 -746 -4 0
-143 746 0
-143 4 0
144 -143 -695 0
-144 143 0
-144 695 0
145 -747 -142 0
-145 747 0
-145 142 0
146 -38 -1 0
-146 38 0
-146 1 0
147 -146 -703 0
-147 146 0
-147 703 0
148 -748 -145 0
-148 748 0
-148 145 0
149 -25 -24 0
-149 25 0
-149 24 0
150 -149 -699 0
-150 149 0
-150 699 0
151 -749 -148 0
-151 749 0
-151 148 0
152 -750 -23 0
-152 750 0
-152 23 0
153 -152 -44 0
-153 152 0
-153 44 0
154 -751 -151 0
-154 751 0
-154 151 0
155 -724 -30 0
-155 724 0
-155 30 0
156 -155 -695 0
-156 155 0
-156 695 0
157 -752 -154 0
-157 752 0
-157 154 0
158 -753 -6 0
-158 753 0
-158 6 0
159 -158 -9 0
-159 158 0
-159 9 0
160 -754 -157 0
-160 754 0
-160 157 0
161 -38 -24 0
-161 38 0
-161 24 0
162 -161 -39 0
-162 161 0
-162 39 0
163 -755 -160 0
-163 755 0
-163 160 0
164 -719 -710 0
-164 719 0
-164 710 0
165 -164 -3 0
-165 164 0
-165 3 0
166 -756 -163 0
-166 756 0
-166 163 0
167 -21 -2 0
-167 21 0
-167 2 0
168 -167 -757 0
-168 167 0
-168 757 0
169 -758 -166 0
-169 758 0
-169 166 0
170 -730 -690 0
-170 730 0
-170 690 0
171 -170 -44 0
-171 170 0
-171 44 0
172 -759 -169 0
-172 759 0
-172 169 0
173 -41 -37 0
-173 41 0
-173 37 0
174 -173 -760 0
-174 173 0
-174 760 0
175 -761 -172 0
-175 761 0
-175 172 0
176 -46 -36 0
-176 46 0
-176 36 0
177 -176 -40 0
-177 176 0
-177 40 0
178 -762 -175 0
-178 762 0
-178 175 0
179 -47 -763 0
-179 47 0
-179 763 0
180 -179 -703 0
-180 179 0
-180 703 0
181 -764 -178 0
-181 764 0
-181 178 0
182 -706 -734 0
-182 706 0
-182 734 0
183 -182 -765 0
-183 182 0
-183 765 0
184 -766 -181 0
-184 766 0
-184 181 0
185 -725 -689 0
-185 725 0
-185 689 0
186 -185 -716 0
-186 185 0
-186 716 0
187 -767 -184 0
-187 767 0
-187 184 0
188 -15 -768 0
-188 15 0
-188 768 0
189 -188 -9 0
-189 188 0
-189 9 0
190 -769 -187 0
-190 769 0
-190 187 0
191 -770 -744 0
-191 770 0
-191 744 0
192 -191 -765 0
-192 191 0
-192 765 0
193 -771 -190 0
-193 771 0
-193 190 0
194 -25 -22 0
-194 25 0
-194 22 0
195 -194 -772 0
-195 194 0
-195 772 0
196 -773 -193 0
-196 773 0
-196 193 0
197 -718 -2 0
-197 718 0
-197 2 0
198 -197 -49 0
-198 197 0
-198 49 0
199 -774 -196 0
-199 774 0
-199 196 0
200 -50 -775 0
-200 50 0
-200 775 0
201 -200 -32 0
-201 200 0
-201 32 0
202 -776 -199 0
-202 776 0
-202 199 0
203 -27 -700 0
-203 27 0
-203 700 0
204 -203 -712 0
-204 203 0
-204 712 0
205 -777 -202 0
-205 777 0
-205 202 0
206 -48 -32 0
-206 48 0
-206 32 0
207 -206 -47 0
-207 206 0
-207 47 0
208 -778 -205 0
-208 778 0
-208 205 0
209 -38 -30 0
-209 38 0
-209 30 0
210 -209 -779 0
-210 209 0
-210 779 0
211 -780 -208 0
-211 780 0
-211 208 0
212 -741 -734 0
-212 741 0
-212 734 0
213 -212 -728 0
-213 212 0
-213 728 0
214 -781 -211 0
-214 781 0
-214 211 0
215 -782 -714 0
-215 782 0
-215 714 0
216 -215 -6 0
-216 215 0
-216 6 0
217 -783 -214 0
-217 783 0
-217 214 0
218 -41 -28 0
-218 41 0
-218 28 0
219 -218 -784 0
-219 218 0
-219 784 0
220 -785 -217 0
-220 785 0
-220 217 0
221 -33 -700 0
-221 33 0
-221 700 0
222 -221 -49 0
-222 221 0
-222 49 0
223 -786 -220 0
-223 786 0
-223 220 0
224 -32 -27 0
-224 32 0
-224 27 0
225 -224 -787 0
-225 224 0
-225 787 0
226 -788 -223 0
-226 788 0
-226 223 0
227 -50 -719 0
-227 50 0
-227 719 0
228 -227 -42 0
-228 227 0
-228 42 0
229 -789 -226 0
-229 789 0
-229 226 0
230 -34 -17 0
-230 34 0
-230 17 0
231 -230 -790 0
-231 230 0
-231 790 0
232 -791 -229 0
-232 791 0
-232 229 0
233 -760 -27 0
-233 760 0
-233 27 0
234 -233 -46 0
-234 233 0
-234 46 0
235 -792 -232 0
-235 792 0
-235 232 0
236 -718 -710 0
-236 718 0
-236 710 0
237 -236 -730 0
-237 236 0
-237 730 0
238 -793 -235 0
-238 793 0
-238 235 0
239 -739 -699 0
-239 739 0
-239 699 0
240 -239 -6 0
-240 239 0
-240 6 0
241 -794 -238 0
-241 794 0
-241 238 0
242 -718 -1 0
-242 718 0
-242 1 0
243 -242 -28 0
-243 242 0
-243 28 0
244 -795 -241 0
-244 795 0
-244 241 0
245 -34 -25 0
-245 34 0
-245 25 0
246 -245 -11 0
-246 245 0
-246 11 0
247 -796 -244 0
-247 796 0
-247 244 0
248 -26 -730 0
-248 26 0
-248 730 0
249 -248 -46 0
-249 248 0
-249 46 0
250 -797 -247 0
-250 797 0
-250 247 0
251 -45 -2 0
-251 45 0
-251 2 0
252 -251 -784 0
-252 251 0
-252 784 0
253 -798 -250 0
-253 798 0
-253 250 0
254 -37 -21 0
-254 37 0
-254 21 0
255 -254 -22 0
-255 254 0
-255 22 0
256 -799 -253 0
-256 799 0
-256 253 0
257 -30 -29 0
-257 30 0
-257 29 0
258 -257 -779 0
-258 257 0
-258 779 0
259 -800 -256 0
-259 800 0
-259 256 0
260 -724 -24 0
-260 724 0
-260 24 0
261 -260 -801 0
-261 260 0
-261 801 0
262 -802 -259 0
-262 802 0
-262 259 0
263 -765 -724 0
-263 765 0
-263 724 0
264 -263 -801 0
-264 263 0
-264 801 0
265 -803 -262 0
-265 803 0
-265 262 0
266 -34 -710 0
-266 34 0
-266 710 0
267 -266 -721 0
-267 266 0
-267 721 0
268 -804 -265 0
-268 804 0
-268 265 0
269 -22 -1 0
-269 22 0
-269 1 0
270 -269 -49 0
-270 269 0
-270 49 0
271 -805 -268 0
-271 805 0
-271 268 0
272 -48 -741 0
-272 48 0
-272 741 0
273 -272 -765 0
-273 272 0
-273 765 0
274 -806 -271 0
-274 806 0
-274 271 0
275 -41 -13 0
-275 41 0
-275 13 0
276 -275 -690 0
-276 275 0
-276 690 0
277 -807 -274 0
-277 807 0
-277 274 0
278 -33 -691 0
-278 33 0
-278 691 0
279 -278 -49 0
-279 278 0
-279 49 0
280 -808 -277 0
-280 808 0
-280 277 0
281 -20 -19 0
-281 20 0
-281 19 0
282 -281 -8 0
-282 281 0
-282 8 0
283 -809 -280 0
-283 809 0
-283 280 0
284 -790 -708 0
-284 790 0
-284 708 0
285 -284 -49 0
-285 284 0
-285 49 0
286 -810 -283 0
-286 810 0
-286 283 0
287 -47 -708 0
-287 47 0
-287 708 0
288 -287 -801 0
-288 287 0
-288 801 0
289 -811 -286 0
-289 811 0
-289 286 0
290 -50 -21 0
-290 50 0
-290 21 0
291 -290 -770 0
-291 290 0
-291 770 0
292 -812 -289 0
-292 812 0
-292 289 0
293 -39 -813 0
-293 39 0
-293 813 0
294 -293 -716 0
-294 293 0
-294 716 0
295 -814 -292 0
-295 814 0
-295 292 0
296 -718 -22 0
-296 718 0
-296 22 0
297 -296 -763 0
-297 296 0
-297 763 0
298 -815 -295 0
-298 815 0
-298 295 0
299 -23 -712 0
-299 23 0
-299 712 0
300 -299 -15 0
-300 299 0
-300 15 0
301 -816 -298 0
-301 816 0
-301 298 0
302 -50 -739 0
-302 50 0
-302 739 0
303 -302 -32 0
-303 302 0
-303 32 0
304 -817 -301 0
-304 817 0
-304 301 0
305 -48 -772 0
-305 48 0
-305 772 0
306 -305 -8 0
-306 305 0
-306 8 0
307 -818 -304 0
-307 818 0
-307 304 0
308 -43 -30 0
-308 43 0
-308 30 0
309 -308 -47 0
-309 308 0
-309 47 0
310 -819 -307 0
-310 819 0
-310 307 0
311 -700 -7 0
-311 700 0
-311 7 0
312 -311 -17 0
-312 311 0
-312 17 0
313 -820 -310 0
-313 820 0
-313 310 0
314 -750 -746 0
-314 750 0
-314 746 0
315 -314 -821 0
-315 314 0
-315 821 0
316 -822 -313 0
-316 822 0
-316 313 0
317 -724 -20 0
-317 724 0
-317 20 0
318 -317 -23 0
-318 317 0
-318 23 0
319 -823 -316 0
-319 823 0
-319 316 0
320 -721 -21 0
-320 721 0
-320 21 0
321 -320 -690 0
-321 320 0
-321 690 0
322 -824 -319 0
-322 824 0
-322 319 0
323 -724 -813 0
-323 724 0
-323 813 0
324 -323 -9 0
-324 323 0
-324 9 0
325 -825 -322 0
-325 825 0
-325 322 0
326 -744 -23 0
-326 744 0
-326 23 0
327 -326 -690 0
-327 326 0
-327 690 0
328 -826 -325 0
-328 826 0
-328 325 0
329 -827 -779 0
-329 827 0
-329 779 0
330 -329 -31 0
-330 329 0
-330 31 0
331 -828 -328 0
-331 828 0
-331 328 0
332 -34 -775 0
-332 34 0
-332 775 0
333 -332 -697 0
-333 332 0
-333 697 0
334 -829 -331 0
-334 829 0
-334 331 0
335 -830 -710 0
-335 830 0
-335 710 0
336 -335 -770 0
-336 335 0
-336 770 0
337 -831 -334 0
-337 831 0
-337 334 0
338 -725 -14 0
-338 725 0
-338 14 0
339 -338 -32 0
-339 338 0
-339 32 0
340 -832 -337 0
-340 832 0
-340 337 0
341 -21 -734 0
-341 21 0
-341 734 0
342 -341 -716 0
-342 341 0
-342 716 0
343 -833 -340 0
-343 833 0
-343 340 0
344 -39 -14 0
-344 39 0
-344 14 0
345 -344 -42 0
-345 344 0
-345 42 0
346 -834 -343 0
-346 834 0
-346 343 0
347 -13 -703 0
-347 13 0
-347 703 0
348 -347 -8 0
-348 347 0
-348 8 0
349 -835 -346 0
-349 835 0
-349 346 0
350 -33 -1 0
-350 33 0
-350 1 0
351 -350 -772 0
-351 350 0
-351 772 0
352 -836 -349 0
-352 836 0
-352 349 0
353 -245 -690 0
-353 245 0
-353 690 0
354 -837 -352 0
-354 837 0
-354 352 0
355 -741 -830 0
-355 741 0
-355 830 0
356 -355 -41 0
-356 355 0
-356 41 0
357 -838 -354 0
-357 838 0
-357 354 0
358 -269 -724 0
-358 269 0
-358 724 0
359 -839 -357 0
-359 839 0
-359 357 0
360 -757 -699 0
-360 757 0
-360 699 0
361 -360 -782 0
-361 360 0
-361 782 0
362 -840 -359 0
-362 840 0
-362 359 0
363 -827 -718 0
-363 827 0
-363 718 0
364 -363 -730 0
-364 363 0
-364 730 0
365 -841 -362 0
-365 841 0
-365 362 0
366 -34 -14 0
-366 34 0
-366 14 0
367 -366 -757 0
-367 366 0
-367 757 0
368 -842 -365 0
-368 842 0
-368 365 0
369 -13 -4 0
-369 13 0
-369 4 0
370 -369 -8 0
-370 369 0
-370 8 0
371 -843 -368 0
-371 843 0
-371 368 0
372 -34 -30 0
-372 34 0
-372 30 0
373 -372 -699 0
-373 372 0
-373 699 0
374 -844 -371 0
-374 844 0
-374 371 0
375 -845 -23 0
-375 845 0
-375 23 0
376 -375 -45 0
-376 375 0
-376 45 0
377 -846 -374 0
-377 846 0
-377 374 0
378 -739 -714 0
-378 739 0
-378 714 0
379 -378 -10 0
-379 378 0
-379 10 0
380 -847 -377 0
-380 847 0
-380 377 0
381 -34 -1 0
-381 34 0
-381 1 0
382 -381 -779 0
-382 381 0
-382 779 0
383 -848 -380 0
-383 848 0
-383 380 0
384 -30 -849 0
-384 30 0
-384 849 0
385 -384 -744 0
-385 384 0
-385 744 0
386 -850 -383 0
-386 850 0
-386 383 0
387 -714 -24 0
-387 714 0
-387 24 0
388 -387 -22 0
-388 387 0
-388 22 0
389 -851 -386 0
-389 851 0
-389 386 0
390 -770 -694 0
-390 770 0
-390 694 0
391 -390 -787 0
-391 390 0
-391 787 0
392 -852 -389 0
-392 852 0
-392 389 0
393 -725 -700 0
-393 725 0
-393 700 0
394 -393 -39 0
-394 393 0
-394 39 0
395 -853 -392 0
-395 853 0
-395 392 0
396 -739 -724 0
-396 739 0
-396 724 0
397 -396 -46 0
-397 396 0
-397 46 0
398 -854 -395 0
-398 854 0
-398 395 0
399 -39 -710 0
-399 39 0
-399 710 0
400 -399 -23 0
-400 399 0
-400 23 0
401 -855 -398 0
-401 855 0
-401 398 0
402 -763 -706 0
-402 763 0
-402 706 0
403 -402 -47 0
-403 402 0
-403 47 0
404 -856 -401 0
-404 856 0
-404 401 0
405 -39 -7 0
-405 39 0
-405 7 0
406 -405 -28 0
-406 405 0
-406 28 0
407 -857 -404 0
-407 857 0
-407 404 0
408 -6 -5 0
-408 6 0
-408 5 0
409 -408 -821 0
-409 408 0
-409 821 0
410 -858 -407 0
-410 858 0
-410 407 0
411 -34 -714 0
-411 34 0
-411 714 0
412 -411 -12 0
-412 411 0
-412 12 0
413 -859 -410 0
-413 859 0
-413 410 0
414 -48 -849 0
-414 48 0
-414 849 0
415 -414 -750 0
-415 414 0
-415 750 0
416 -860 -413 0
-416 860 0
-416 413 0
417 -43 -36 0
-417 43 0
-417 36 0
418 -417 -31 0
-418 417 0
-418 31 0
419 -861 -416 0
-419 861 0
-419 416 0
420 -369 -3 0
-420 369 0
-420 3 0
421 -862 -419 0
-421 862 0
-421 419 0
422 -782 -734 0
-422 782 0
-422 734 0
423 -422 -6 0
-423 422 0
-423 6 0
424 -863 -421 0
-424 863 0
-424 421 0
425 -719 -782 0
-425 719 0
-425 782 0
426 -425 -772 0
-426 425 0
-426 772 0
427 -864 -424 0
-427 864 0
-427 424 0
428 -45 -33 0
-428 45 0
-428 33 0
429 -428 -10 0
-429 428 0
-429 10 0
430 -865 -427 0
-430 865 0
-430 427 0
431 -7 -813 0
-431 7 0
-431 813 0
432 -431 -29 0
-432 431 0
-432 29 0
433 -866 -430 0
-433 866 0
-433 430 0
434 -770 -46 0
-434 770 0
-434 46 0
435 -434 -31 0
-435 434 0
-435 31 0
436 -867 -433 0
-436 867 0
-436 433 0
437 -37 -718 0
-437 37 0
-437 718 0
438 -437 -849 0
-438 437 0
-438 849 0
439 -868 -436 0
-439 868 0
-439 436 0
440 -725 -830 0
-440 725 0
-440 830 0
441 -440 -690 0
-441 440 0
-441 690 0
442 -869 -439 0
-442 869 0
-442 439 0
443 -870 -694 0
-443 870 0
-443 694 0
444 -443 -9 0
-444 443 0
-444 9 0
445 -871 -442 0
-445 871 0
-445 442 0
446 -39 -741 0
-446 39 0
-446 741 0
447 -446 -41 0
-447 446 0
-447 41 0
448 -872 -445 0
-448 872 0
-448 445 0
449 -43 -38 0
-449 43 0
-449 38 0
450 -449 -31 0
-450 449 0
-450 31 0
451 -873 -448 0
-451 873 0
-451 448 0
452 -739 -6 0
-452 739 0
-452 6 0
453 -452 -690 0
-453 452 0
-453 690 0
454 -874 -451 0
-454 874 0
-454 451 0
455 -43 -5 0
-455 43 0
-455 5 0
456 -455 -36 0
-456 455 0
-456 36 0
457 -875 -454 0
-457 875 0
-457 454 0
458 -11 -2 0
-458 11 0
-458 2 0
459 -458 -765 0
-459 458 0
-459 765 0
460 -876 -457 0
-460 876 0
-460 457 0
461 -716 -22 0
-461 716 0
-461 22 0
462 -461 -3 0
-462 461 0
-462 3 0
463 -877 -460 0
-463 877 0
-463 460 0
464 -849 -13 0
-464 849 0
-464 13 0
465 -464 -703 0
-465 464 0
-465 703 0
466 -878 -463 0
-466 878 0
-466 463 0
467 -17 -813 0
-467 17 0
-467 813 0
468 -467 -43 0
-468 467 0
-468 43 0
469 -879 -466 0
-469 879 0
-469 466 0
470 -757 -12 0
-470 757 0
-470 12 0
471 -470 -42 0
-471 470 0
-471 42 0
472 -880 -469 0
-472 880 0
-472 469 0
473 -26 -12 0
-473 26 0
-473 12 0
474 -473 -724 0
-474 473 0
-474 724 0
475 -881 -472 0
-475 881 0
-475 472 0
476 -28 -25 0
-476 28 0
-476 25 0
477 -476 -47 0
-477 476 0
-477 47 0
478 -882 -475 0
-478 882 0
-478 475 0
479 -849 -22 0
-479 849 0
-479 22 0
480 -479 -724 0
-480 479 0
-480 724 0
481 -883 -478 0
-481 883 0
-481 478 0
482 -34 -813 0
-482 34 0
-482 813 0
483 -482 -703 0
-483 482 0
-483 703 0
484 -884 -481 0
-484 884 0
-484 481 0
485 -37 -734 0
-485 37 0
-485 734 0
486 -485 -746 0
-486 485 0
-486 746 0
487 -885 -484 0
-487 885 0
-487 484 0
488 -18 -1 0
-488 18 0
-488 1 0
489 -488 -750 0
-489 488 0
-489 750 0
490 -886 -487 0
-490 886 0
-490 487 0
491 -39 -2 0
-491 39 0
-491 2 0
492 -491 -8 0
-492 491 0
-492 8 0
493 -887 -490 0
-493 887 0
-493 490 0
494 -32 -28 0
-494 32 0
-494 28 0
495 -494 -10 0
-495 494 0
-495 10 0
496 -888 -493 0
-496 888 0
-496 493 0
497 -827 -700 0
-497 827 0
-497 700 0
498 -497 -29 0
-498 497 0
-498 29 0
499 -889 -496 0
-499 889 0
-499 496 0
500 -714 -691 0
-500 714 0
-500 691 0
501 -500 -690 0
-501 500 0
-501 690 0
502 -890 -499 0
-502 890 0
-502 499 0
503 -760 -33 0
-503 760 0
-503 33 0
504 -503 -42 0
-504 503 0
-504 42 0
505 -891 -502 0
-505 891 0
-505 502 0
506 -42 -17 0
-506 42 0
-506 17 0
507 -506 -10 0
-507 506 0
-507 10 0
508 -892 -505 0
-508 892 0
-508 505 0
509 -284 -757 0
-509 284 0
-509 757 0
510 -893 -508 0
-510 893 0
-510 508 0
511 -33 -14 0
-511 33 0
-511 14 0
512 -511 -6 0
-512 511 0
-512 6 0
513 -894 -510 0
-513 894 0
-513 510 0
514 -33 -768 0
-514 33 0
-514 768 0
515 -514 -719 0
-515 514 0
-515 719 0
516 -895 -513 0
-516 895 0
-516 513 0
517 -721 -20 0
-517 721 0
-517 20 0
518 -517 -697 0
-518 517 0
-518 697 0
519 -896 -516 0
-519 896 0
-519 516 0
520 -827 -4 0
-520 827 0
-520 4 0
521 -520 -40 0
-521 520 0
-521 40 0
522 -897 -519 0
-522 897 0
-522 519 0
523 -479 -15 0
-523 479 0
-523 15 0
524 -898 -522 0
-524 898 0
-524 522 0
525 -45 -14 0
-525 45 0
-525 14 0
526 -525 -44 0
-526 525 0
-526 44 0
527 -899 -524 0
-527 899 0
-527 524 0
528 -845 -712 0
-528 845 0
-528 712 0
529 -528 -36 0
-529 528 0
-529 36 0
530 -900 -527 0
-530 900 0
-530 527 0
531 -37 -741 0
-531 37 0
-531 741 0
532 -531 -870 0
-532 531 0
-532 870 0
533 -901 -530 0
-533 901 0
-533 530 0
534 -772 -757 0
-534 772 0
-534 757 0
535 -534 -8 0
-535 534 0
-535 8 0
536 -902 -533 0
-536 902 0
-536 533 0
537 -782 -11 0
-537 782 0
-537 11 0
538 -537 -49 0
-538 537 0
-538 49 0
539 -903 -536 0
-539 903 0
-539 536 0
540 -500 -41 0
-540 500 0
-540 41 0
541 -904 -539 0
-541 904 0
-541 539 0
542 -710 -689 0
-542 710 0
-542 689 0
543 -542 -18 0
-543 542 0
-543 18 0
544 -905 -541 0
-544 905 0
-544 541 0
545 -29 -22 0
-545 29 0
-545 22 0
546 -545 -3 0
-546 545 0
-546 3 0
547 -906 -544 0
-547 906 0
-547 544 0
548 -17 -734 0
-548 17 0
-548 734 0
549 -548 -49 0
-549 548 0
-549 49 0
550 -907 -547 0
-550 907 0
-550 547 0
551 -4 -813 0
-551 4 0
-551 813 0
552 -551 -29 0
-552 551 0
-552 29 0
553 -908 -550 0
-553 908 0
-553 550 0
554 -744 -849 0
-554 744 0
-554 849 0
555 -554 -724 0
-555 554 0
-555 724 0
556 -909 -553 0
-556 909 0
-556 553 0
557 -43 -33 0
-557 43 0
-557 33 0
558 -557 -42 0
-558 557 0
-558 42 0
559 -910 -556 0
-559 910 0
-559 556 0
560 -790 -691 0
-560 790 0
-560 691 0
561 -560 -15 0
-561 560 0
-561 15 0
562 -911 -559 0
-562 911 0
-562 559 0
563 -48 -24 0
-563 48 0
-563 24 0
564 -563 -719 0
-564 563 0
-564 719 0
565 -912 -562 0
-565 912 0
-565 562 0
566 -845 -739 0
-566 845 0
-566 739 0
567 -566 -813 0
-567 566 0
-567 813 0
568 -913 -565 0
-568 913 0
-568 565 0
569 -47 -18 0
-569 47 0
-569 18 0
570 -569 -703 0
-570 569 0
-570 703 0
571 -914 -568 0
-571 914 0
-571 568 0
572 -38 -19 0
-572 38 0
-572 19 0
573 -572 -12 0
-573 572 0
-573 12 0
574 -915 -571 0
-574 915 0
-574 571 0
575 -30 -7 0
-575 30 0
-575 7 0
576 -575 -18 0
-576 575 0
-576 18 0
577 -916 -574 0
-577 916 0
-577 574 0
578 -548 -33 0
-578 548 0
-578 33 0
579 -917 -577 0
-579 917 0
-579 577 0
580 -746 -694 0
-580 746 0
-580 694 0
581 -580 -695 0
-581 580 0
-581 695 0
582 -918 -579 0
-582 918 0
-582 579 0
583 -45 -24 0
-583 45 0
-583 24 0
584 -583 -10 0
-584 583 0
-584 10 0
585 -919 -582 0
-585 919 0
-585 582 0
586 -739 -870 0
-586 739 0
-586 870 0
587 -586 -719 0
-587 586 0
-587 719 0
588 -920 -585 0
-588 920 0
-588 585 0
589 -721 -694 0
-589 721 0
-589 694 0
590 -589 -728 0
-590 589 0
-590 728 0
591 -921 -588 0
-591 921 0
-591 588 0
592 -744 -750 0
-592 744 0
-592 750 0
593 -592 -42 0
-593 592 0
-593 42 0
594 -922 -591 0
-594 922 0
-594 591 0
595 -20 -12 0
-595 20 0
-595 12 0
596 -595 -787 0
-596 595 0
-596 787 0
597 -923 -594 0
-597 923 0
-597 594 0
598 -765 -23 0
-598 765 0
-598 23 0
599 -598 -753 0
-599 598 0
-599 753 0
600 -924 -597 0
-600 924 0
-600 597 0
601 -718 -23 0
-601 718 0
-601 23 0
602 -601 -821 0
-602 601 0
-602 821 0
603 -925 -600 0
-603 925 0
-603 600 0
604 -28 -19 0
-604 28 0
-604 19 0
605 -604 -690 0
-605 604 0
-605 690 0
606 -926 -603 0
-606 926 0
-606 603 0
607 -757 -2 0
-607 757 0
-607 2 0
608 -607 -28 0
-608 607 0
-608 28 0
609 -927 -606 0
-609 927 0
-609 606 0
610 -714 -22 0
-610 714 0
-610 22 0
611 -610 -50 0
-611 610 0
-611 50 0
612 -928 -609 0
-612 928 0
-612 609 0
613 -27 -26 0
-613 27 0
-613 26 0
614 -613 -697 0
-614 613 0
-614 697 0
615 -929 -612 0
-615 929 0
-615 612 0
616 -849 -7 0
-616 849 0
-616 7 0
617 -616 -790 0
-617 616 0
-617 790 0
618 -930 -615 0
-618 930 0
-618 615 0
619 -39 -25 0
-619 39 0
-619 25 0
620 -619 -779 0
-620 619 0
-620 779 0
621 -931 -618 0
-621 931 0
-621 618 0
622 -775 -15 0
-622 775 0
-622 15 0
623 -622 -697 0
-623 622 0
-623 697 0
624 -932 -621 0
-624 932 0
-624 621 0
625 -48 -26 0
-625 48 0
-625 26 0
626 -625 -35 0
-626 625 0
-626 35 0
627 -933 -624 0
-627 933 0
-627 624 0
628 -830 -24 0
-628 830 0
-628 24 0
629 -628 -45 0
-629 628 0
-629 45 0
630 -934 -627 0
-630 934 0
-630 627 0
631 -827 -17 0
-631 827 0
-631 17 0
632 -631 -760 0
-632 631 0
-632 760 0
633 -935 -630 0
-633 935 0
-633 630 0
634 -775 -730 0
-634 775 0
-634 730 0
635 -634 -36 0
-635 634 0
-635 36 0
636 -936 -633 0
-636 936 0
-636 633 0
637 -849 -14 0
-637 849 0
-637 14 0
638 -637 -41 0
-638 637 0
-638 41 0
639 -937 -636 0
-639 937 0
-639 636 0
640 -572 -706 0
-640 572 0
-640 706 0
641 -938 -639 0
-641 938 0
-641 639 0
642 -35 -32 0
-642 35 0
-642 32 0
643 -642 -706 0
-643 642 0
-643 706 0
644 -939 -641 0
-644 939 0
-644 641 0
645 -36 -4 0
-645 36 0
-645 4 0
646 -645 -40 0
-646 645 0
-646 40 0
647 -940 -644 0
-647 940 0
-647 644 0
648 -744 -714 0
-648 744 0
-648 714 0
649 -648 -730 0
-649 648 0
-649 730 0
650 -941 -647 0
-650 941 0
-650 647 0
651 -782 -699 0
-651 782 0
-651 699 0
652 -651 -753 0
-652 651 0
-652 753 0
653 -942 -650 0
-653 942 0
-653 650 0
654 -16 -691 0
-654 16 0
-654 691 0
655 -654 -697 0
-655 654 0
-655 697 0
656 -943 -653 0
-656 943 0
-656 653 0
657 -45 -734 0
-657 45 0
-657 734 0
658 -657 -695 0
-658 657 0
-658 695 0
659 -944 -656 0
-659 944 0
-659 656 0
660 -45 -21 0
-660 45 0
-660 21 0
661 -660 -3 0
-661 660 0
-661 3 0
662 -945 -659 0
-662 945 0
-662 659 0
663 -725 -22 0
-663 725 0
-663 22 0
664 -663 -2 0
-664 663 0
-664 2 0
665 -946 -662 0
-665 946 0
-665 662 0
666 -37 -813 0
-666 37 0
-666 813 0
667 -666 -772 0
-667 666 0
-667 772 0
668 -947 -665 0
-668 947 0
-668 665 0
669 -616 -772 0
-669 616 0
-669 772 0
670 -948 -668 0
-670 948 0
-670 668 0
671 -36 -725 0
-671 36 0
-671 725 0
672 -671 -42 0
-672 671 0
-672 42 0
673 -949 -670 0
-673 949 0
-673 670 0
674 -782 -4 0
-674 782 0
-674 4 0
675 -674 -779 0
-675 674 0
-675 779 0
676 -950 -673 0
-676 950 0
-676 673 0
677 -697 -813 0
-677 697 0
-677 813 0
678 -677 -728 0
-678 677 0
-678 728 0
679 -951 -676 0
-679 951 0
-679 676 0
680 -47 -694 0
-680 47 0
-680 694 0
681 -680 -46 0
-681 680 0
-681 46 0
682 -952 -679 0
-682 952 0
-682 679 0
683 -26 -17 0
-683 26 0
-683 17 0
684 -683 -753 0
-684 683 0
-684 753 0
685 -953 -682 0
-685 953 0
-685 682 0
686 -779 -22 0
-686 779 0
-686 22 0
687 -686 -719 0
-687 686 0
-687 719 0
688 -954 -685 0
-688 954 0
-688 685 0
-689 -2 0
689 2 0
-690 -3 0
690 3 0
-691 -5 0
691 5 0
-692 -54 0
692 54 0
-693 -52 0
693 52 0
-694 -7 0
694 7 0
-695 -8 0
695 8 0
-696 -57 0
696 57 0
-697 -9 0
697 9 0
-698 -60 0
698 60 0
-699 -12 0
699 12 0
-700 -11 0
700 11 0
-701 -63 0
701 63 0
-702 -66 0
702 66 0
-703 -6 0
703 6 0
-704 -69 0
704 69 0
-705 -72 0
705 72 0
-706 -15 0
706 15 0
-707 -75 0
707 75 0
-708 -19 0
708 19 0
-709 -78 0
709 78 0
-710 -21 0
710 21 0
-711 -81 0
711 81 0
-712 -17 0
712 17 0
-713 -84 0
713 84 0
-714 -25 0
714 25 0
-715 -87 0
715 87 0
-716 -29 0
716 29 0
-717 -90 0
717 90 0
-718 -30 0
718 30 0
-719 -31 0
719 31 0
-720 -93 0
720 93 0
-721 -32 0
721 32 0
-722 -96 0
722 96 0
-723 -99 0
723 99 0
-724 -35 0
724 35 0
-725 -34 0
725 34 0
-726 -102 0
726 102 0
-727 -105 0
727 105 0
-728 -10 0
728 10 0
-729 -108 0
729 108 0
-730 -23 0
730 23 0
-731 -111 0
731 111 0
-732 -114 0
732 114 0
-733 -117 0
733 117 0
-734 -14 0
734 14 0
-735 -120 0
735 120 0
-736 -123 0
736 123 0
-737 -126 0
737 126 0
-738 -129 0
738 129 0
-739 -37 0
739 37 0
-740 -132 0
740 132 0
-741 -33 0
741 33 0
-742 -135 0
742 135 0
-743 -138 0
743 138 0
-744 -43 0
744 43 0
-745 -141 0
745 141 0
-746 -22 0
746 22 0
-747 -144 0
747 144 0
-748 -147 0
748 147 0
-749 -150 0
749 150 0
-750 -41 0
750 41 0
-751 -153 0
751 153 0
-752 -156 0
752 156 0
-753 -16 0
753 16 0
-754 -159 0
754 159 0
-755 -162 0
755 162 0
-756 -165 0
756 165 0
-757 -18 0
757 18 0
-758 -168 0
758 168 0
-759 -171 0
759 171 0
-760 -45 0
760 45 0
-761 -174 0
761 174 0
-762 -177 0
762 177 0
-763 -20 0
763 20 0
-764 -180 0
764 180 0
-765 -47 0
765 47 0
-766 -183 0
766 183 0
-767 -186 0
767 186 0
-768 -4 0
768 4 0
-769 -189 0
769 189 0
-770 -48 0
770 48 0
-771 -192 0
771 192 0
-772 -42 0
772 42 0
-773 -195 0
773 195 0
-774 -198 0
774 198 0
-775 -24 0
775 24 0
-776 -201 0
776 201 0
-777 -204 0
777 204 0
-778 -207 0
778 207 0
-779 -46 0
779 46 0
-780 -210 0
780 210 0
-781 -213 0
781 213 0
-782 -28 0
782 28 0
-783 -216 0
783 216 0
-784 -36 0
784 36 0
-785 -219 0
785 219 0
-786 -222 0
786 222 0
-787 -40 0
787 40 0
-788 -225 0
788 225 0
-789 -228 0
789 228 0
-790 -39 0
790 39 0
-791 -231 0
791 231 0
-792 -234 0
792 234 0
-793 -237 0
793 237 0
-794 -240 0
794 240 0
-795 -243 0
795 243 0
-796 -246 0
796 246 0
-797 -249 0
797 249 0
-798 -252 0
798 252 0
-799 -255 0
799 255 0
-800 -258 0
800 258 0
-801 -49 0
801 49 0
-802 -261 0
802 261 0
-803 -264 0
803 264 0
-804 -267 0
804 267 0
-805 -270 0
805 270 0
-806 -273 0
806 273 0
-807 -276 0
807 276 0
-808 -279 0
808 279 0
-809 -282 0
809 282 0
-810 -285 0
810 285 0
-811 -288 0
811 288 0
-812 -291 0
812 291 0
-813 -1 0
813 1 0
-814 -294 0
814 294 0
-815 -297 0
815 297 0
-816 -300 0
816 300 0
-817 -303 0
817 303 0
-818 -306 0
818 306 0
-819 -309 0
819 309 0
-820 -312 0
820 312 0
-821 -44 0
821 44 0
-822 -315 0
822 315 0
-823 -318 0
823 318 0
-824 -321 0
824 321 0
-825 -324 0
825 324 0
-826 -327 0
826 327 0
-827 -50 0
827 50 0
-828 -330 0
828 330 0
-829 -333 0
829 333 0
-830 -27 0
830 27 0
-831 -336 0
831 336 0
-832 -339 0
832 339 0
-833 -342 0
833 342 0
-834 -345 0
834 345 0
-835 -348 0
835 348 0
-836 -351 0
836 351 0
-837 -353 0
837 353 0
-838 -356 0
838 356 0
-839 -358 0
839 358 0
-840 -361 0
840 361 0
-841 -364 0
841 364 0
-842 -367 0
842 367 0
-843 -370 0
843 370 0
-844 -373 0
844 373 0
-845 -38 0
845 38 0
-846 -376 0
846 376 0
-847 -379 0
847 379 0
-848 -382 0
848 382 0
-849 -26 0
849 26 0
-850 -385 0
850 385 0
-851 -388 0
851 388 0
-852 -391 0
852 391 0
-853 -394 0
853 394 0
-854 -397 0
854 397 0
-855 -400 0
855 400 0
-856 -403 0
856 403 0
-857 -406 0
857 406 0
-858 -409 0
858 409 0
-859 -412 0
859 412 0
-860 -415 0
860 415 0
-861 -418 0
861 418 0
-862 -420 0
862 420 0
-863 -423 0
863 423 0
-864 -426 0
864 426 0
-865 -429 0
865 429 0
-866 -432 0
866 432 0
-867 -435 0
867 435 0
-868 -438 0
868 438 0
-869 -441 0
869 441 0
-870 -13 0
870 13 0
-871 -444 0
871 444 0
-872 -447 0
872 447 0
-873 -450 0
873 450 0
-874 -453 0
874 453 0
-875 -456 0
875 456 0
-876 -459 0
876 459 0
-877 -462 0
877 462 0
-878 -465 0
878 465 0
-879 -468 0
879 468 0
-880 -471 0
880 471 0
-881 -474 0
881 474 0
-882 -477 0
882 477 0
-883 -480 0
883 480 0
-884 -483 0
884 483 0
-885 -486 0
885 486 0
-886 -489 0
886 489 0
-887 -492 0
887 492 0
-888 -495 0
888 495 0
-889 -498 0
889 498 0
-890 -501 0
890 501 0
-891 -504 0
891 504 0
-892 -507 0
892 507 0
-893 -509 0
893 509 0
-894 -512 0
894 512 0
-895 -515 0
895 515 0
-896 -518 0
896 518 0
-897 -521 0
897 521 0
-898 -523 0
898 523 0
-899 -526 0
899 526 0
-900 -529 0
900 529 0
-901 -532 0
901 532 0
-902 -535 0
902 535 0
-903 -538 0
903 538 0
-904 -540 0
904 540 0
-905 -543 0
905 543 0
-906 -546 0
906 546 0
-907 -549 0
907 549 0
-908 -552 0
908 552 0
-909 -555 0
909 555 0
-910 -558 0
910 558 0
-911 -561 0
911 561 0
-912 -564 0
912 564 0
-913 -567 0
913 567 0
-914 -570 0
914 570 0
-915 -573 0
915 573 0
-916 -576 0
916 576 0
-917 -578 0
917 578 0
-918 -581 0
918 581 0
-919 -584 0
919 584 0
-920 -587 0
920 587 0
-921 -590 0
921 590 0
-922 -593 0
922 593 0
-923 -596 0
923 596 0
-924 -599 0
924 599 0
-925 -602 0
925 602 0
-926 -605 0
926 605 0
-927 -608 0
927 608 0
-928 -611 0
928 611 0
-929 -614 0
929 614 0
-930 -617 0
930 617 0
-931 -620 0
931 620 0
-932 -623 0
932 623 0
-933 -626 0
933 626 0
-934 -629 0
934 629 0
-935 -632 0
935 632 0
-936 -635 0
936 635 0
-937 -638 0
937 638 0
-938 -640 0
938 640 0
-939 -643 0
939 643 0
-940 -646 0
940 646 0
-941 -649 0
941 649 0
-942 -652 0
942 652 0
-943 -655 0
943 655 0
-944 -658 0
944 658 0
-945 -661 0
945 661 0
-946 -664 0
946 664 0
-947 -667 0
947 667 0
-948 -669 0
948 669 0
-949 -672 0
949 672 0
-950 -675 0
950 675 0
-951 -678 0
951 678 0
-952 -681 0
952 681 0
-953 -684 0
953 684 0
-954 -687 0
954 687 0
688 0
